\ File written by HiGHS .lp file handler
min
 obj: 
st
 10a_i=0: +1 e('source_4371314864', 1, 0) = +1
 10b_i=0: +1 e(4, 'sink_4371314864', 0) = +1
 10a_i=1: +1 e('source_4371314864', 1, 1) = +1
 10b_i=1: +1 e(4, 'sink_4371314864', 1) = +1
 10a_i=2: +1 e('source_4371314864', 1, 2) = +1
 10b_i=2: +1 e(4, 'sink_4371314864', 2) = +1
 10a_i=3: +1 e('source_4371314864', 1, 3) = +1
 10b_i=3: +1 e(4, 'sink_4371314864', 3) = +1
 10a_i=4: +1 e('source_4371314864', 1, 4) = +1
 10b_i=4: +1 e(4, 'sink_4371314864', 4) = +1
 10a_i=5: +1 e('source_4371314864', 1, 5) = +1
 10b_i=5: +1 e(4, 'sink_4371314864', 5) = +1
 10a_i=6: +1 e('source_4371314864', 1, 6) = +1
 10b_i=6: +1 e(4, 'sink_4371314864', 6) = +1
 10a_i=7: +1 e('source_4371314864', 1, 7) = +1
 10b_i=7: +1 e(4, 'sink_4371314864', 7) = +1
 10a_i=8: +1 e('source_4371314864', 1, 8) = +1
 10b_i=8: +1 e(4, 'sink_4371314864', 8) = +1
 10a_i=9: +1 e('source_4371314864', 1, 9) = +1
 10b_i=9: +1 e(4, 'sink_4371314864', 9) = +1
 10a_i=10: +1 e('source_4371314864', 1, 10) = +1
 10b_i=10: +1 e(4, 'sink_4371314864', 10) = +1
 10a_i=11: +1 e('source_4371314864', 1, 11) = +1
 10b_i=11: +1 e(4, 'sink_4371314864', 11) = +1
 10a_i=12: +1 e('source_4371314864', 1, 12) = +1
 10b_i=12: +1 e(4, 'sink_4371314864', 12) = +1
 10a_i=13: +1 e('source_4371314864', 1, 13) = +1
 10b_i=13: +1 e(4, 'sink_4371314864', 13) = +1
 10a_i=14: +1 e('source_4371314864', 1, 14) = +1
 10b_i=14: +1 e(4, 'sink_4371314864', 14) = +1
 10c_v=1_i=0: -1 e(1, 2, 0) -1 e(1, 3, 0) +1 e('source_4371314864', 1, 0) = +0
 10c_v=2_i=0: +1 e(1, 2, 0) -1 e(2, 4, 0) = +0
 10c_v=4_i=0: +1 e(2, 4, 0) -1 e(4, 'sink_4371314864', 0) +1 e(3, 4, 0) = +0
 10c_v=3_i=0: +1 e(1, 3, 0) -1 e(3, 4, 0) = +0
 10c_v=1_i=1: -1 e(1, 2, 1) -1 e(1, 3, 1) +1 e('source_4371314864', 1, 1) = +0
 10c_v=2_i=1: +1 e(1, 2, 1) -1 e(2, 4, 1) = +0
 10c_v=4_i=1: +1 e(2, 4, 1) -1 e(4, 'sink_4371314864', 1) +1 e(3, 4, 1) = +0
 10c_v=3_i=1: +1 e(1, 3, 1) -1 e(3, 4, 1) = +0
 10c_v=1_i=2: -1 e(1, 2, 2) -1 e(1, 3, 2) +1 e('source_4371314864', 1, 2) = +0
 10c_v=2_i=2: +1 e(1, 2, 2) -1 e(2, 4, 2) = +0
 10c_v=4_i=2: +1 e(2, 4, 2) -1 e(4, 'sink_4371314864', 2) +1 e(3, 4, 2) = +0
 10c_v=3_i=2: +1 e(1, 3, 2) -1 e(3, 4, 2) = +0
 10c_v=1_i=3: -1 e(1, 2, 3) -1 e(1, 3, 3) +1 e('source_4371314864', 1, 3) = +0
 10c_v=2_i=3: +1 e(1, 2, 3) -1 e(2, 4, 3) = +0
 10c_v=4_i=3: +1 e(2, 4, 3) -1 e(4, 'sink_4371314864', 3) +1 e(3, 4, 3) = +0
 10c_v=3_i=3: +1 e(1, 3, 3) -1 e(3, 4, 3) = +0
 10c_v=1_i=4: -1 e(1, 2, 4) -1 e(1, 3, 4) +1 e('source_4371314864', 1, 4) = +0
 10c_v=2_i=4: +1 e(1, 2, 4) -1 e(2, 4, 4) = +0
 10c_v=4_i=4: +1 e(2, 4, 4) -1 e(4, 'sink_4371314864', 4) +1 e(3, 4, 4) = +0
 10c_v=3_i=4: +1 e(1, 3, 4) -1 e(3, 4, 4) = +0
 10c_v=1_i=5: -1 e(1, 2, 5) -1 e(1, 3, 5) +1 e('source_4371314864', 1, 5) = +0
 10c_v=2_i=5: +1 e(1, 2, 5) -1 e(2, 4, 5) = +0
 10c_v=4_i=5: +1 e(2, 4, 5) -1 e(4, 'sink_4371314864', 5) +1 e(3, 4, 5) = +0
 10c_v=3_i=5: +1 e(1, 3, 5) -1 e(3, 4, 5) = +0
 10c_v=1_i=6: -1 e(1, 2, 6) -1 e(1, 3, 6) +1 e('source_4371314864', 1, 6) = +0
 10c_v=2_i=6: +1 e(1, 2, 6) -1 e(2, 4, 6) = +0
 10c_v=4_i=6: +1 e(2, 4, 6) -1 e(4, 'sink_4371314864', 6) +1 e(3, 4, 6) = +0
 10c_v=3_i=6: +1 e(1, 3, 6) -1 e(3, 4, 6) = +0
 10c_v=1_i=7: -1 e(1, 2, 7) -1 e(1, 3, 7) +1 e('source_4371314864', 1, 7) = +0
 10c_v=2_i=7: +1 e(1, 2, 7) -1 e(2, 4, 7) = +0
 10c_v=4_i=7: +1 e(2, 4, 7) -1 e(4, 'sink_4371314864', 7) +1 e(3, 4, 7) = +0
 10c_v=3_i=7: +1 e(1, 3, 7) -1 e(3, 4, 7) = +0
 10c_v=1_i=8: -1 e(1, 2, 8) -1 e(1, 3, 8) +1 e('source_4371314864', 1, 8) = +0
 10c_v=2_i=8: +1 e(1, 2, 8) -1 e(2, 4, 8) = +0
 10c_v=4_i=8: +1 e(2, 4, 8) -1 e(4, 'sink_4371314864', 8) +1 e(3, 4, 8) = +0
 10c_v=3_i=8: +1 e(1, 3, 8) -1 e(3, 4, 8) = +0
 10c_v=1_i=9: -1 e(1, 2, 9) -1 e(1, 3, 9) +1 e('source_4371314864', 1, 9) = +0
 10c_v=2_i=9: +1 e(1, 2, 9) -1 e(2, 4, 9) = +0
 10c_v=4_i=9: +1 e(2, 4, 9) -1 e(4, 'sink_4371314864', 9) +1 e(3, 4, 9) = +0
 10c_v=3_i=9: +1 e(1, 3, 9) -1 e(3, 4, 9) = +0
 10c_v=1_i=10: -1 e(1, 2, 10) -1 e(1, 3, 10) +1 e('source_4371314864', 1, 10) = +0
 10c_v=2_i=10: +1 e(1, 2, 10) -1 e(2, 4, 10) = +0
 10c_v=4_i=10: +1 e(2, 4, 10) -1 e(4, 'sink_4371314864', 10) +1 e(3, 4, 10) = +0
 10c_v=3_i=10: +1 e(1, 3, 10) -1 e(3, 4, 10) = +0
 10c_v=1_i=11: -1 e(1, 2, 11) -1 e(1, 3, 11) +1 e('source_4371314864', 1, 11) = +0
 10c_v=2_i=11: +1 e(1, 2, 11) -1 e(2, 4, 11) = +0
 10c_v=4_i=11: +1 e(2, 4, 11) -1 e(4, 'sink_4371314864', 11) +1 e(3, 4, 11) = +0
 10c_v=3_i=11: +1 e(1, 3, 11) -1 e(3, 4, 11) = +0
 10c_v=1_i=12: -1 e(1, 2, 12) -1 e(1, 3, 12) +1 e('source_4371314864', 1, 12) = +0
 10c_v=2_i=12: +1 e(1, 2, 12) -1 e(2, 4, 12) = +0
 10c_v=4_i=12: +1 e(2, 4, 12) -1 e(4, 'sink_4371314864', 12) +1 e(3, 4, 12) = +0
 10c_v=3_i=12: +1 e(1, 3, 12) -1 e(3, 4, 12) = +0
 10c_v=1_i=13: -1 e(1, 2, 13) -1 e(1, 3, 13) +1 e('source_4371314864', 1, 13) = +0
 10c_v=2_i=13: +1 e(1, 2, 13) -1 e(2, 4, 13) = +0
 10c_v=4_i=13: +1 e(2, 4, 13) -1 e(4, 'sink_4371314864', 13) +1 e(3, 4, 13) = +0
 10c_v=3_i=13: +1 e(1, 3, 13) -1 e(3, 4, 13) = +0
 10c_v=1_i=14: -1 e(1, 2, 14) -1 e(1, 3, 14) +1 e('source_4371314864', 1, 14) = +0
 10c_v=2_i=14: +1 e(1, 2, 14) -1 e(2, 4, 14) = +0
 10c_v=4_i=14: +1 e(2, 4, 14) -1 e(4, 'sink_4371314864', 14) +1 e(3, 4, 14) = +0
 10c_v=3_i=14: +1 e(1, 3, 14) -1 e(3, 4, 14) = +0
 safe_list_u=source_4371314864_v=1_i=0: +1 e('source_4371314864', 1, 0) = +1
 safe_list_u=1_v=2_i=0: +1 e(1, 2, 0) = +1
 safe_list_u=2_v=4_i=0: +1 e(2, 4, 0) = +1
 safe_list_u=4_v=sink_4371314864_i=0: +1 e(4, 'sink_4371314864', 0) = +1
 safe_list_u=source_4371314864_v=1_i=1: +1 e('source_4371314864', 1, 1) = +1
 safe_list_u=1_v=3_i=1: +1 e(1, 3, 1) = +1
 safe_list_u=3_v=4_i=1: +1 e(3, 4, 1) = +1
 safe_list_u=4_v=sink_4371314864_i=1: +1 e(4, 'sink_4371314864', 1) = +1
 10e_u=1_v=2_i=0: -20 e(1, 2, 0) +1 p(1, 2, 0) <= +0
 10f_u=1_v=2_i=0: +1 p(1, 2, 0) -1 w0 <= -0
 10g_u=1_v=2_i=0: +20 e(1, 2, 0) -1 p(1, 2, 0) +1 w0 <= +20
 10e_u=1_v=2_i=1: -20 e(1, 2, 1) +1 p(1, 2, 1) <= +0
 10f_u=1_v=2_i=1: +1 p(1, 2, 1) -1 w1 <= -0
 10g_u=1_v=2_i=1: +20 e(1, 2, 1) -1 p(1, 2, 1) +1 w1 <= +20
 10e_u=1_v=2_i=2: -20 e(1, 2, 2) +1 p(1, 2, 2) <= +0
 10f_u=1_v=2_i=2: +1 p(1, 2, 2) -1 w2 <= -0
 10g_u=1_v=2_i=2: +20 e(1, 2, 2) -1 p(1, 2, 2) +1 w2 <= +20
 10e_u=1_v=2_i=3: -20 e(1, 2, 3) +1 p(1, 2, 3) <= +0
 10f_u=1_v=2_i=3: +1 p(1, 2, 3) -1 w3 <= -0
 10g_u=1_v=2_i=3: +20 e(1, 2, 3) -1 p(1, 2, 3) +1 w3 <= +20
 10e_u=1_v=2_i=4: -20 e(1, 2, 4) +1 p(1, 2, 4) <= +0
 10f_u=1_v=2_i=4: +1 p(1, 2, 4) -1 w4 <= -0
 10g_u=1_v=2_i=4: +20 e(1, 2, 4) -1 p(1, 2, 4) +1 w4 <= +20
 10e_u=1_v=2_i=5: -20 e(1, 2, 5) +1 p(1, 2, 5) <= +0
 10f_u=1_v=2_i=5: +1 p(1, 2, 5) -1 w5 <= -0
 10g_u=1_v=2_i=5: +20 e(1, 2, 5) -1 p(1, 2, 5) +1 w5 <= +20
 10e_u=1_v=2_i=6: -20 e(1, 2, 6) +1 p(1, 2, 6) <= +0
 10f_u=1_v=2_i=6: +1 p(1, 2, 6) -1 w6 <= -0
 10g_u=1_v=2_i=6: +20 e(1, 2, 6) -1 p(1, 2, 6) +1 w6 <= +20
 10e_u=1_v=2_i=7: -20 e(1, 2, 7) +1 p(1, 2, 7) <= +0
 10f_u=1_v=2_i=7: +1 p(1, 2, 7) -1 w7 <= -0
 10g_u=1_v=2_i=7: +20 e(1, 2, 7) -1 p(1, 2, 7) +1 w7 <= +20
 10e_u=1_v=2_i=8: -20 e(1, 2, 8) +1 p(1, 2, 8) <= +0
 10f_u=1_v=2_i=8: +1 p(1, 2, 8) -1 w8 <= -0
 10g_u=1_v=2_i=8: +20 e(1, 2, 8) -1 p(1, 2, 8) +1 w8 <= +20
 10e_u=1_v=2_i=9: -20 e(1, 2, 9) +1 p(1, 2, 9) <= +0
 10f_u=1_v=2_i=9: +1 p(1, 2, 9) -1 w9 <= -0
 10g_u=1_v=2_i=9: +20 e(1, 2, 9) -1 p(1, 2, 9) +1 w9 <= +20
 10e_u=1_v=2_i=10: -20 e(1, 2, 10) +1 p(1, 2, 10) <= +0
 10f_u=1_v=2_i=10: +1 p(1, 2, 10) -1 w10 <= -0
 10g_u=1_v=2_i=10: +20 e(1, 2, 10) -1 p(1, 2, 10) +1 w10 <= +20
 10e_u=1_v=2_i=11: -20 e(1, 2, 11) +1 p(1, 2, 11) <= +0
 10f_u=1_v=2_i=11: +1 p(1, 2, 11) -1 w11 <= -0
 10g_u=1_v=2_i=11: +20 e(1, 2, 11) -1 p(1, 2, 11) +1 w11 <= +20
 10e_u=1_v=2_i=12: -20 e(1, 2, 12) +1 p(1, 2, 12) <= +0
 10f_u=1_v=2_i=12: +1 p(1, 2, 12) -1 w12 <= -0
 10g_u=1_v=2_i=12: +20 e(1, 2, 12) -1 p(1, 2, 12) +1 w12 <= +20
 10e_u=1_v=2_i=13: -20 e(1, 2, 13) +1 p(1, 2, 13) <= +0
 10f_u=1_v=2_i=13: +1 p(1, 2, 13) -1 w13 <= -0
 10g_u=1_v=2_i=13: +20 e(1, 2, 13) -1 p(1, 2, 13) +1 w13 <= +20
 10e_u=1_v=2_i=14: -20 e(1, 2, 14) +1 p(1, 2, 14) <= +0
 10f_u=1_v=2_i=14: +1 p(1, 2, 14) -1 w14 <= -0
 10g_u=1_v=2_i=14: +20 e(1, 2, 14) -1 p(1, 2, 14) +1 w14 <= +20
 10d_u=1_v=2_i=14: +1 p(1, 2, 0) +1 p(1, 2, 1) +1 p(1, 2, 2) +1 p(1, 2, 3) +1 p(1, 2, 4) +1 p(1, 2, 5) +1 p(1, 2, 6) +1 p(1, 2, 7) +1 p(1, 2, 8) +1 p(1, 2, 9) +1 p(1, 2, 10) +1 p(1, 2, 11) +1 p(1, 2, 12) +1 p(1, 2, 13) +1 p(1, 2, 14) = +10
 10e_u=1_v=3_i=0: -20 e(1, 3, 0) +1 p(1, 3, 0) <= +0
 10f_u=1_v=3_i=0: +1 p(1, 3, 0) -1 w0 <= -0
 10g_u=1_v=3_i=0: +20 e(1, 3, 0) -1 p(1, 3, 0) +1 w0 <= +20
 10e_u=1_v=3_i=1: -20 e(1, 3, 1) +1 p(1, 3, 1) <= +0
 10f_u=1_v=3_i=1: +1 p(1, 3, 1) -1 w1 <= -0
 10g_u=1_v=3_i=1: +20 e(1, 3, 1) -1 p(1, 3, 1) +1 w1 <= +20
 10e_u=1_v=3_i=2: -20 e(1, 3, 2) +1 p(1, 3, 2) <= +0
 10f_u=1_v=3_i=2: +1 p(1, 3, 2) -1 w2 <= -0
 10g_u=1_v=3_i=2: +20 e(1, 3, 2) -1 p(1, 3, 2) +1 w2 <= +20
 10e_u=1_v=3_i=3: -20 e(1, 3, 3) +1 p(1, 3, 3) <= +0
 10f_u=1_v=3_i=3: +1 p(1, 3, 3) -1 w3 <= -0
 10g_u=1_v=3_i=3: +20 e(1, 3, 3) -1 p(1, 3, 3) +1 w3 <= +20
 10e_u=1_v=3_i=4: -20 e(1, 3, 4) +1 p(1, 3, 4) <= +0
 10f_u=1_v=3_i=4: +1 p(1, 3, 4) -1 w4 <= -0
 10g_u=1_v=3_i=4: +20 e(1, 3, 4) -1 p(1, 3, 4) +1 w4 <= +20
 10e_u=1_v=3_i=5: -20 e(1, 3, 5) +1 p(1, 3, 5) <= +0
 10f_u=1_v=3_i=5: +1 p(1, 3, 5) -1 w5 <= -0
 10g_u=1_v=3_i=5: +20 e(1, 3, 5) -1 p(1, 3, 5) +1 w5 <= +20
 10e_u=1_v=3_i=6: -20 e(1, 3, 6) +1 p(1, 3, 6) <= +0
 10f_u=1_v=3_i=6: +1 p(1, 3, 6) -1 w6 <= -0
 10g_u=1_v=3_i=6: +20 e(1, 3, 6) -1 p(1, 3, 6) +1 w6 <= +20
 10e_u=1_v=3_i=7: -20 e(1, 3, 7) +1 p(1, 3, 7) <= +0
 10f_u=1_v=3_i=7: +1 p(1, 3, 7) -1 w7 <= -0
 10g_u=1_v=3_i=7: +20 e(1, 3, 7) -1 p(1, 3, 7) +1 w7 <= +20
 10e_u=1_v=3_i=8: -20 e(1, 3, 8) +1 p(1, 3, 8) <= +0
 10f_u=1_v=3_i=8: +1 p(1, 3, 8) -1 w8 <= -0
 10g_u=1_v=3_i=8: +20 e(1, 3, 8) -1 p(1, 3, 8) +1 w8 <= +20
 10e_u=1_v=3_i=9: -20 e(1, 3, 9) +1 p(1, 3, 9) <= +0
 10f_u=1_v=3_i=9: +1 p(1, 3, 9) -1 w9 <= -0
 10g_u=1_v=3_i=9: +20 e(1, 3, 9) -1 p(1, 3, 9) +1 w9 <= +20
 10e_u=1_v=3_i=10: -20 e(1, 3, 10) +1 p(1, 3, 10) <= +0
 10f_u=1_v=3_i=10: +1 p(1, 3, 10) -1 w10 <= -0
 10g_u=1_v=3_i=10: +20 e(1, 3, 10) -1 p(1, 3, 10) +1 w10 <= +20
 10e_u=1_v=3_i=11: -20 e(1, 3, 11) +1 p(1, 3, 11) <= +0
 10f_u=1_v=3_i=11: +1 p(1, 3, 11) -1 w11 <= -0
 10g_u=1_v=3_i=11: +20 e(1, 3, 11) -1 p(1, 3, 11) +1 w11 <= +20
 10e_u=1_v=3_i=12: -20 e(1, 3, 12) +1 p(1, 3, 12) <= +0
 10f_u=1_v=3_i=12: +1 p(1, 3, 12) -1 w12 <= -0
 10g_u=1_v=3_i=12: +20 e(1, 3, 12) -1 p(1, 3, 12) +1 w12 <= +20
 10e_u=1_v=3_i=13: -20 e(1, 3, 13) +1 p(1, 3, 13) <= +0
 10f_u=1_v=3_i=13: +1 p(1, 3, 13) -1 w13 <= -0
 10g_u=1_v=3_i=13: +20 e(1, 3, 13) -1 p(1, 3, 13) +1 w13 <= +20
 10e_u=1_v=3_i=14: -20 e(1, 3, 14) +1 p(1, 3, 14) <= +0
 10f_u=1_v=3_i=14: +1 p(1, 3, 14) -1 w14 <= -0
 10g_u=1_v=3_i=14: +20 e(1, 3, 14) -1 p(1, 3, 14) +1 w14 <= +20
 10d_u=1_v=3_i=14: +1 p(1, 3, 0) +1 p(1, 3, 1) +1 p(1, 3, 2) +1 p(1, 3, 3) +1 p(1, 3, 4) +1 p(1, 3, 5) +1 p(1, 3, 6) +1 p(1, 3, 7) +1 p(1, 3, 8) +1 p(1, 3, 9) +1 p(1, 3, 10) +1 p(1, 3, 11) +1 p(1, 3, 12) +1 p(1, 3, 13) +1 p(1, 3, 14) = +20
 10e_u=2_v=4_i=0: -20 e(2, 4, 0) +1 p(2, 4, 0) <= +0
 10f_u=2_v=4_i=0: +1 p(2, 4, 0) -1 w0 <= -0
 10g_u=2_v=4_i=0: +20 e(2, 4, 0) -1 p(2, 4, 0) +1 w0 <= +20
 10e_u=2_v=4_i=1: -20 e(2, 4, 1) +1 p(2, 4, 1) <= +0
 10f_u=2_v=4_i=1: +1 p(2, 4, 1) -1 w1 <= -0
 10g_u=2_v=4_i=1: +20 e(2, 4, 1) -1 p(2, 4, 1) +1 w1 <= +20
 10e_u=2_v=4_i=2: -20 e(2, 4, 2) +1 p(2, 4, 2) <= +0
 10f_u=2_v=4_i=2: +1 p(2, 4, 2) -1 w2 <= -0
 10g_u=2_v=4_i=2: +20 e(2, 4, 2) -1 p(2, 4, 2) +1 w2 <= +20
 10e_u=2_v=4_i=3: -20 e(2, 4, 3) +1 p(2, 4, 3) <= +0
 10f_u=2_v=4_i=3: +1 p(2, 4, 3) -1 w3 <= -0
 10g_u=2_v=4_i=3: +20 e(2, 4, 3) -1 p(2, 4, 3) +1 w3 <= +20
 10e_u=2_v=4_i=4: -20 e(2, 4, 4) +1 p(2, 4, 4) <= +0
 10f_u=2_v=4_i=4: +1 p(2, 4, 4) -1 w4 <= -0
 10g_u=2_v=4_i=4: +20 e(2, 4, 4) -1 p(2, 4, 4) +1 w4 <= +20
 10e_u=2_v=4_i=5: -20 e(2, 4, 5) +1 p(2, 4, 5) <= +0
 10f_u=2_v=4_i=5: +1 p(2, 4, 5) -1 w5 <= -0
 10g_u=2_v=4_i=5: +20 e(2, 4, 5) -1 p(2, 4, 5) +1 w5 <= +20
 10e_u=2_v=4_i=6: -20 e(2, 4, 6) +1 p(2, 4, 6) <= +0
 10f_u=2_v=4_i=6: +1 p(2, 4, 6) -1 w6 <= -0
 10g_u=2_v=4_i=6: +20 e(2, 4, 6) -1 p(2, 4, 6) +1 w6 <= +20
 10e_u=2_v=4_i=7: -20 e(2, 4, 7) +1 p(2, 4, 7) <= +0
 10f_u=2_v=4_i=7: +1 p(2, 4, 7) -1 w7 <= -0
 10g_u=2_v=4_i=7: +20 e(2, 4, 7) -1 p(2, 4, 7) +1 w7 <= +20
 10e_u=2_v=4_i=8: -20 e(2, 4, 8) +1 p(2, 4, 8) <= +0
 10f_u=2_v=4_i=8: +1 p(2, 4, 8) -1 w8 <= -0
 10g_u=2_v=4_i=8: +20 e(2, 4, 8) -1 p(2, 4, 8) +1 w8 <= +20
 10e_u=2_v=4_i=9: -20 e(2, 4, 9) +1 p(2, 4, 9) <= +0
 10f_u=2_v=4_i=9: +1 p(2, 4, 9) -1 w9 <= -0
 10g_u=2_v=4_i=9: +20 e(2, 4, 9) -1 p(2, 4, 9) +1 w9 <= +20
 10e_u=2_v=4_i=10: -20 e(2, 4, 10) +1 p(2, 4, 10) <= +0
 10f_u=2_v=4_i=10: +1 p(2, 4, 10) -1 w10 <= -0
 10g_u=2_v=4_i=10: +20 e(2, 4, 10) -1 p(2, 4, 10) +1 w10 <= +20
 10e_u=2_v=4_i=11: -20 e(2, 4, 11) +1 p(2, 4, 11) <= +0
 10f_u=2_v=4_i=11: +1 p(2, 4, 11) -1 w11 <= -0
 10g_u=2_v=4_i=11: +20 e(2, 4, 11) -1 p(2, 4, 11) +1 w11 <= +20
 10e_u=2_v=4_i=12: -20 e(2, 4, 12) +1 p(2, 4, 12) <= +0
 10f_u=2_v=4_i=12: +1 p(2, 4, 12) -1 w12 <= -0
 10g_u=2_v=4_i=12: +20 e(2, 4, 12) -1 p(2, 4, 12) +1 w12 <= +20
 10e_u=2_v=4_i=13: -20 e(2, 4, 13) +1 p(2, 4, 13) <= +0
 10f_u=2_v=4_i=13: +1 p(2, 4, 13) -1 w13 <= -0
 10g_u=2_v=4_i=13: +20 e(2, 4, 13) -1 p(2, 4, 13) +1 w13 <= +20
 10e_u=2_v=4_i=14: -20 e(2, 4, 14) +1 p(2, 4, 14) <= +0
 10f_u=2_v=4_i=14: +1 p(2, 4, 14) -1 w14 <= -0
 10g_u=2_v=4_i=14: +20 e(2, 4, 14) -1 p(2, 4, 14) +1 w14 <= +20
 10d_u=2_v=4_i=14: +1 p(2, 4, 0) +1 p(2, 4, 1) +1 p(2, 4, 2) +1 p(2, 4, 3) +1 p(2, 4, 4) +1 p(2, 4, 5) +1 p(2, 4, 6) +1 p(2, 4, 7) +1 p(2, 4, 8) +1 p(2, 4, 9) +1 p(2, 4, 10) +1 p(2, 4, 11) +1 p(2, 4, 12) +1 p(2, 4, 13) +1 p(2, 4, 14) = +10
 10e_u=3_v=4_i=0: -20 e(3, 4, 0) +1 p(3, 4, 0) <= +0
 10f_u=3_v=4_i=0: +1 p(3, 4, 0) -1 w0 <= -0
 10g_u=3_v=4_i=0: +20 e(3, 4, 0) -1 p(3, 4, 0) +1 w0 <= +20
 10e_u=3_v=4_i=1: -20 e(3, 4, 1) +1 p(3, 4, 1) <= +0
 10f_u=3_v=4_i=1: +1 p(3, 4, 1) -1 w1 <= -0
 10g_u=3_v=4_i=1: +20 e(3, 4, 1) -1 p(3, 4, 1) +1 w1 <= +20
 10e_u=3_v=4_i=2: -20 e(3, 4, 2) +1 p(3, 4, 2) <= +0
 10f_u=3_v=4_i=2: +1 p(3, 4, 2) -1 w2 <= -0
 10g_u=3_v=4_i=2: +20 e(3, 4, 2) -1 p(3, 4, 2) +1 w2 <= +20
 10e_u=3_v=4_i=3: -20 e(3, 4, 3) +1 p(3, 4, 3) <= +0
 10f_u=3_v=4_i=3: +1 p(3, 4, 3) -1 w3 <= -0
 10g_u=3_v=4_i=3: +20 e(3, 4, 3) -1 p(3, 4, 3) +1 w3 <= +20
 10e_u=3_v=4_i=4: -20 e(3, 4, 4) +1 p(3, 4, 4) <= +0
 10f_u=3_v=4_i=4: +1 p(3, 4, 4) -1 w4 <= -0
 10g_u=3_v=4_i=4: +20 e(3, 4, 4) -1 p(3, 4, 4) +1 w4 <= +20
 10e_u=3_v=4_i=5: -20 e(3, 4, 5) +1 p(3, 4, 5) <= +0
 10f_u=3_v=4_i=5: +1 p(3, 4, 5) -1 w5 <= -0
 10g_u=3_v=4_i=5: +20 e(3, 4, 5) -1 p(3, 4, 5) +1 w5 <= +20
 10e_u=3_v=4_i=6: -20 e(3, 4, 6) +1 p(3, 4, 6) <= +0
 10f_u=3_v=4_i=6: +1 p(3, 4, 6) -1 w6 <= -0
 10g_u=3_v=4_i=6: +20 e(3, 4, 6) -1 p(3, 4, 6) +1 w6 <= +20
 10e_u=3_v=4_i=7: -20 e(3, 4, 7) +1 p(3, 4, 7) <= +0
 10f_u=3_v=4_i=7: +1 p(3, 4, 7) -1 w7 <= -0
 10g_u=3_v=4_i=7: +20 e(3, 4, 7) -1 p(3, 4, 7) +1 w7 <= +20
 10e_u=3_v=4_i=8: -20 e(3, 4, 8) +1 p(3, 4, 8) <= +0
 10f_u=3_v=4_i=8: +1 p(3, 4, 8) -1 w8 <= -0
 10g_u=3_v=4_i=8: +20 e(3, 4, 8) -1 p(3, 4, 8) +1 w8 <= +20
 10e_u=3_v=4_i=9: -20 e(3, 4, 9) +1 p(3, 4, 9) <= +0
 10f_u=3_v=4_i=9: +1 p(3, 4, 9) -1 w9 <= -0
 10g_u=3_v=4_i=9: +20 e(3, 4, 9) -1 p(3, 4, 9) +1 w9 <= +20
 10e_u=3_v=4_i=10: -20 e(3, 4, 10) +1 p(3, 4, 10) <= +0
 10f_u=3_v=4_i=10: +1 p(3, 4, 10) -1 w10 <= -0
 10g_u=3_v=4_i=10: +20 e(3, 4, 10) -1 p(3, 4, 10) +1 w10 <= +20
 10e_u=3_v=4_i=11: -20 e(3, 4, 11) +1 p(3, 4, 11) <= +0
 10f_u=3_v=4_i=11: +1 p(3, 4, 11) -1 w11 <= -0
 10g_u=3_v=4_i=11: +20 e(3, 4, 11) -1 p(3, 4, 11) +1 w11 <= +20
 10e_u=3_v=4_i=12: -20 e(3, 4, 12) +1 p(3, 4, 12) <= +0
 10f_u=3_v=4_i=12: +1 p(3, 4, 12) -1 w12 <= -0
 10g_u=3_v=4_i=12: +20 e(3, 4, 12) -1 p(3, 4, 12) +1 w12 <= +20
 10e_u=3_v=4_i=13: -20 e(3, 4, 13) +1 p(3, 4, 13) <= +0
 10f_u=3_v=4_i=13: +1 p(3, 4, 13) -1 w13 <= -0
 10g_u=3_v=4_i=13: +20 e(3, 4, 13) -1 p(3, 4, 13) +1 w13 <= +20
 10e_u=3_v=4_i=14: -20 e(3, 4, 14) +1 p(3, 4, 14) <= +0
 10f_u=3_v=4_i=14: +1 p(3, 4, 14) -1 w14 <= -0
 10g_u=3_v=4_i=14: +20 e(3, 4, 14) -1 p(3, 4, 14) +1 w14 <= +20
 10d_u=3_v=4_i=14: +1 p(3, 4, 0) +1 p(3, 4, 1) +1 p(3, 4, 2) +1 p(3, 4, 3) +1 p(3, 4, 4) +1 p(3, 4, 5) +1 p(3, 4, 6) +1 p(3, 4, 7) +1 p(3, 4, 8) +1 p(3, 4, 9) +1 p(3, 4, 10) +1 p(3, 4, 11) +1 p(3, 4, 12) +1 p(3, 4, 13) +1 p(3, 4, 14) = +20
bounds
 e(1, 2, 0) <= 1
 e(1, 3, 0) <= 1
 e(2, 4, 0) <= 1
 e(4, 'sink_4371314864', 0) <= 1
 e(3, 4, 0) <= 1
 e('source_4371314864', 1, 0) <= 1
 e(1, 2, 1) <= 1
 e(1, 3, 1) <= 1
 e(2, 4, 1) <= 1
 e(4, 'sink_4371314864', 1) <= 1
 e(3, 4, 1) <= 1
 e('source_4371314864', 1, 1) <= 1
 e(1, 2, 2) <= 1
 e(1, 3, 2) <= 1
 e(2, 4, 2) <= 1
 e(4, 'sink_4371314864', 2) <= 1
 e(3, 4, 2) <= 1
 e('source_4371314864', 1, 2) <= 1
 e(1, 2, 3) <= 1
 e(1, 3, 3) <= 1
 e(2, 4, 3) <= 1
 e(4, 'sink_4371314864', 3) <= 1
 e(3, 4, 3) <= 1
 e('source_4371314864', 1, 3) <= 1
 e(1, 2, 4) <= 1
 e(1, 3, 4) <= 1
 e(2, 4, 4) <= 1
 e(4, 'sink_4371314864', 4) <= 1
 e(3, 4, 4) <= 1
 e('source_4371314864', 1, 4) <= 1
 e(1, 2, 5) <= 1
 e(1, 3, 5) <= 1
 e(2, 4, 5) <= 1
 e(4, 'sink_4371314864', 5) <= 1
 e(3, 4, 5) <= 1
 e('source_4371314864', 1, 5) <= 1
 e(1, 2, 6) <= 1
 e(1, 3, 6) <= 1
 e(2, 4, 6) <= 1
 e(4, 'sink_4371314864', 6) <= 1
 e(3, 4, 6) <= 1
 e('source_4371314864', 1, 6) <= 1
 e(1, 2, 7) <= 1
 e(1, 3, 7) <= 1
 e(2, 4, 7) <= 1
 e(4, 'sink_4371314864', 7) <= 1
 e(3, 4, 7) <= 1
 e('source_4371314864', 1, 7) <= 1
 e(1, 2, 8) <= 1
 e(1, 3, 8) <= 1
 e(2, 4, 8) <= 1
 e(4, 'sink_4371314864', 8) <= 1
 e(3, 4, 8) <= 1
 e('source_4371314864', 1, 8) <= 1
 e(1, 2, 9) <= 1
 e(1, 3, 9) <= 1
 e(2, 4, 9) <= 1
 e(4, 'sink_4371314864', 9) <= 1
 e(3, 4, 9) <= 1
 e('source_4371314864', 1, 9) <= 1
 e(1, 2, 10) <= 1
 e(1, 3, 10) <= 1
 e(2, 4, 10) <= 1
 e(4, 'sink_4371314864', 10) <= 1
 e(3, 4, 10) <= 1
 e('source_4371314864', 1, 10) <= 1
 e(1, 2, 11) <= 1
 e(1, 3, 11) <= 1
 e(2, 4, 11) <= 1
 e(4, 'sink_4371314864', 11) <= 1
 e(3, 4, 11) <= 1
 e('source_4371314864', 1, 11) <= 1
 e(1, 2, 12) <= 1
 e(1, 3, 12) <= 1
 e(2, 4, 12) <= 1
 e(4, 'sink_4371314864', 12) <= 1
 e(3, 4, 12) <= 1
 e('source_4371314864', 1, 12) <= 1
 e(1, 2, 13) <= 1
 e(1, 3, 13) <= 1
 e(2, 4, 13) <= 1
 e(4, 'sink_4371314864', 13) <= 1
 e(3, 4, 13) <= 1
 e('source_4371314864', 1, 13) <= 1
 e(1, 2, 14) <= 1
 e(1, 3, 14) <= 1
 e(2, 4, 14) <= 1
 e(4, 'sink_4371314864', 14) <= 1
 e(3, 4, 14) <= 1
 e('source_4371314864', 1, 14) <= 1
 p(1, 2, 0) <= 20
 p(1, 3, 0) <= 20
 p(2, 4, 0) <= 20
 p(4, 'sink_4371314864', 0) <= 20
 p(3, 4, 0) <= 20
 p('source_4371314864', 1, 0) <= 20
 p(1, 2, 1) <= 20
 p(1, 3, 1) <= 20
 p(2, 4, 1) <= 20
 p(4, 'sink_4371314864', 1) <= 20
 p(3, 4, 1) <= 20
 p('source_4371314864', 1, 1) <= 20
 p(1, 2, 2) <= 20
 p(1, 3, 2) <= 20
 p(2, 4, 2) <= 20
 p(4, 'sink_4371314864', 2) <= 20
 p(3, 4, 2) <= 20
 p('source_4371314864', 1, 2) <= 20
 p(1, 2, 3) <= 20
 p(1, 3, 3) <= 20
 p(2, 4, 3) <= 20
 p(4, 'sink_4371314864', 3) <= 20
 p(3, 4, 3) <= 20
 p('source_4371314864', 1, 3) <= 20
 p(1, 2, 4) <= 20
 p(1, 3, 4) <= 20
 p(2, 4, 4) <= 20
 p(4, 'sink_4371314864', 4) <= 20
 p(3, 4, 4) <= 20
 p('source_4371314864', 1, 4) <= 20
 p(1, 2, 5) <= 20
 p(1, 3, 5) <= 20
 p(2, 4, 5) <= 20
 p(4, 'sink_4371314864', 5) <= 20
 p(3, 4, 5) <= 20
 p('source_4371314864', 1, 5) <= 20
 p(1, 2, 6) <= 20
 p(1, 3, 6) <= 20
 p(2, 4, 6) <= 20
 p(4, 'sink_4371314864', 6) <= 20
 p(3, 4, 6) <= 20
 p('source_4371314864', 1, 6) <= 20
 p(1, 2, 7) <= 20
 p(1, 3, 7) <= 20
 p(2, 4, 7) <= 20
 p(4, 'sink_4371314864', 7) <= 20
 p(3, 4, 7) <= 20
 p('source_4371314864', 1, 7) <= 20
 p(1, 2, 8) <= 20
 p(1, 3, 8) <= 20
 p(2, 4, 8) <= 20
 p(4, 'sink_4371314864', 8) <= 20
 p(3, 4, 8) <= 20
 p('source_4371314864', 1, 8) <= 20
 p(1, 2, 9) <= 20
 p(1, 3, 9) <= 20
 p(2, 4, 9) <= 20
 p(4, 'sink_4371314864', 9) <= 20
 p(3, 4, 9) <= 20
 p('source_4371314864', 1, 9) <= 20
 p(1, 2, 10) <= 20
 p(1, 3, 10) <= 20
 p(2, 4, 10) <= 20
 p(4, 'sink_4371314864', 10) <= 20
 p(3, 4, 10) <= 20
 p('source_4371314864', 1, 10) <= 20
 p(1, 2, 11) <= 20
 p(1, 3, 11) <= 20
 p(2, 4, 11) <= 20
 p(4, 'sink_4371314864', 11) <= 20
 p(3, 4, 11) <= 20
 p('source_4371314864', 1, 11) <= 20
 p(1, 2, 12) <= 20
 p(1, 3, 12) <= 20
 p(2, 4, 12) <= 20
 p(4, 'sink_4371314864', 12) <= 20
 p(3, 4, 12) <= 20
 p('source_4371314864', 1, 12) <= 20
 p(1, 2, 13) <= 20
 p(1, 3, 13) <= 20
 p(2, 4, 13) <= 20
 p(4, 'sink_4371314864', 13) <= 20
 p(3, 4, 13) <= 20
 p('source_4371314864', 1, 13) <= 20
 p(1, 2, 14) <= 20
 p(1, 3, 14) <= 20
 p(2, 4, 14) <= 20
 p(4, 'sink_4371314864', 14) <= 20
 p(3, 4, 14) <= 20
 p('source_4371314864', 1, 14) <= 20
 w0 <= 20
 w1 <= 20
 w2 <= 20
 w3 <= 20
 w4 <= 20
 w5 <= 20
 w6 <= 20
 w7 <= 20
 w8 <= 20
 w9 <= 20
 w10 <= 20
 w11 <= 20
 w12 <= 20
 w13 <= 20
 w14 <= 20
bin
 e(1, 2, 0)
 e(1, 3, 0)
 e(2, 4, 0)
 e(4, 'sink_4371314864', 0)
 e(3, 4, 0)
 e('source_4371314864', 1, 0)
 e(1, 2, 1)
 e(1, 3, 1)
 e(2, 4, 1)
 e(4, 'sink_4371314864', 1)
 e(3, 4, 1)
 e('source_4371314864', 1, 1)
 e(1, 2, 2)
 e(1, 3, 2)
 e(2, 4, 2)
 e(4, 'sink_4371314864', 2)
 e(3, 4, 2)
 e('source_4371314864', 1, 2)
 e(1, 2, 3)
 e(1, 3, 3)
 e(2, 4, 3)
 e(4, 'sink_4371314864', 3)
 e(3, 4, 3)
 e('source_4371314864', 1, 3)
 e(1, 2, 4)
 e(1, 3, 4)
 e(2, 4, 4)
 e(4, 'sink_4371314864', 4)
 e(3, 4, 4)
 e('source_4371314864', 1, 4)
 e(1, 2, 5)
 e(1, 3, 5)
 e(2, 4, 5)
 e(4, 'sink_4371314864', 5)
 e(3, 4, 5)
 e('source_4371314864', 1, 5)
 e(1, 2, 6)
 e(1, 3, 6)
 e(2, 4, 6)
 e(4, 'sink_4371314864', 6)
 e(3, 4, 6)
 e('source_4371314864', 1, 6)
 e(1, 2, 7)
 e(1, 3, 7)
 e(2, 4, 7)
 e(4, 'sink_4371314864', 7)
 e(3, 4, 7)
 e('source_4371314864', 1, 7)
 e(1, 2, 8)
 e(1, 3, 8)
 e(2, 4, 8)
 e(4, 'sink_4371314864', 8)
 e(3, 4, 8)
 e('source_4371314864', 1, 8)
 e(1, 2, 9)
 e(1, 3, 9)
 e(2, 4, 9)
 e(4, 'sink_4371314864', 9)
 e(3, 4, 9)
 e('source_4371314864', 1, 9)
 e(1, 2, 10)
 e(1, 3, 10)
 e(2, 4, 10)
 e(4, 'sink_4371314864', 10)
 e(3, 4, 10)
 e('source_4371314864', 1, 10)
 e(1, 2, 11)
 e(1, 3, 11)
 e(2, 4, 11)
 e(4, 'sink_4371314864', 11)
 e(3, 4, 11)
 e('source_4371314864', 1, 11)
 e(1, 2, 12)
 e(1, 3, 12)
 e(2, 4, 12)
 e(4, 'sink_4371314864', 12)
 e(3, 4, 12)
 e('source_4371314864', 1, 12)
 e(1, 2, 13)
 e(1, 3, 13)
 e(2, 4, 13)
 e(4, 'sink_4371314864', 13)
 e(3, 4, 13)
 e('source_4371314864', 1, 13)
 e(1, 2, 14)
 e(1, 3, 14)
 e(2, 4, 14)
 e(4, 'sink_4371314864', 14)
 e(3, 4, 14)
 e('source_4371314864', 1, 14)
gen
semi
end
